<?xml version="1.0" encoding="UTF-8"?><osil xmlns="os.optimizationservices.org"   xmlns:xsi="http://www.w3.org/2001/XMLSchema-instance" xsi:schemaLocation="os.optimizationservices.org http://www.optimizationservices.org/schemas/2.0/OSiL.xsd" ><instanceHeader><name>q_30_0_75_3</name></instanceHeader><instanceData><variables numberOfVariables="30"><var name="x1" ub="1"/><var name="x2" ub="1"/><var name="x3" ub="1"/><var name="x4" ub="1"/><var name="x5" ub="1"/><var name="x6" ub="1"/><var name="x7" ub="1"/><var name="x8" ub="1"/><var name="x9" ub="1"/><var name="x10" ub="1"/><var name="x11" ub="1"/><var name="x12" ub="1"/><var name="x13" ub="1"/><var name="x14" ub="1"/><var name="x15" ub="1"/><var name="x16" ub="1"/><var name="x17" ub="1"/><var name="x18" ub="1"/><var name="x19" ub="1"/><var name="x20" ub="1"/><var name="x21" ub="1"/><var name="x22" ub="1"/><var name="x23" ub="1"/><var name="x24" ub="1"/><var name="x25" ub="1"/><var name="x26" ub="1"/><var name="x27" ub="1"/><var name="x28" ub="1"/><var name="x29" ub="1"/><var name="x30" ub="1"/></variables><objectives numberOfObjectives="1"><obj maxOrMin="min" name="defObj_x31" numberOfObjCoef="30"><coef idx="0">-.931</coef><coef idx="1">-.7231</coef><coef idx="2">-.1203</coef><coef idx="3">.6813</coef><coef idx="4">-.1748</coef><coef idx="5">-.893</coef><coef idx="6">.3339</coef><coef idx="7">.1493</coef><coef idx="8">-8.21e-2</coef><coef idx="9">.497</coef><coef idx="10">-.9345</coef><coef idx="11">.4136</coef><coef idx="12">.7518</coef><coef idx="13">-.343</coef><coef idx="14">-.4928</coef><coef idx="15">.7599</coef><coef idx="16">.6319</coef><coef idx="17">-.8854</coef><coef idx="18">.7768</coef><coef idx="19">4.98e-2</coef><coef idx="20">-.87</coef><coef idx="21">.2151</coef><coef idx="22">-.5144</coef><coef idx="23">-.4663</coef><coef idx="24">-.7141</coef><coef idx="25">.3885</coef><coef idx="26">.8542</coef><coef idx="27">.7864</coef><coef idx="28">.2841</coef><coef idx="29">-.2428</coef></obj></objectives><quadraticCoefficients  numberOfQuadraticTerms="240" ><qTerm  idx="-1"  idxOne="0"  idxTwo="0"  coef="-.3078"/><qTerm  idx="-1"  idxOne="0"  idxTwo="1"  coef=".2953"/><qTerm  idx="-1"  idxOne="0"  idxTwo="2"  coef="-.8559"/><qTerm  idx="-1"  idxOne="0"  idxTwo="3"  coef=".3771"/><qTerm  idx="-1"  idxOne="0"  idxTwo="4"  coef="-.6117"/><qTerm  idx="-1"  idxOne="0"  idxTwo="6"  coef=".1766"/><qTerm  idx="-1"  idxOne="0"  idxTwo="7"  coef=".472"/><qTerm  idx="-1"  idxOne="0"  idxTwo="8"  coef="-.1445"/><qTerm  idx="-1"  idxOne="0"  idxTwo="11"  coef="-.1965"/><qTerm  idx="-1"  idxOne="0"  idxTwo="13"  coef=".5678"/><qTerm  idx="-1"  idxOne="0"  idxTwo="14"  coef=".8256"/><qTerm  idx="-1"  idxOne="0"  idxTwo="15"  coef="-2.88e-2"/><qTerm  idx="-1"  idxOne="0"  idxTwo="16"  coef="-4.73e-2"/><qTerm  idx="-1"  idxOne="0"  idxTwo="17"  coef=".1173"/><qTerm  idx="-1"  idxOne="0"  idxTwo="18"  coef=".6063"/><qTerm  idx="-1"  idxOne="0"  idxTwo="19"  coef="-.8786"/><qTerm  idx="-1"  idxOne="0"  idxTwo="21"  coef=".8495"/><qTerm  idx="-1"  idxOne="0"  idxTwo="23"  coef=".1714"/><qTerm  idx="-1"  idxOne="0"  idxTwo="24"  coef=".4934"/><qTerm  idx="-1"  idxOne="0"  idxTwo="26"  coef="-.7093"/><qTerm  idx="-1"  idxOne="0"  idxTwo="27"  coef="-.5405"/><qTerm  idx="-1"  idxOne="0"  idxTwo="28"  coef=".7902"/><qTerm  idx="-1"  idxOne="0"  idxTwo="29"  coef="-.333"/><qTerm  idx="-1"  idxOne="1"  idxTwo="2"  coef=".9342"/><qTerm  idx="-1"  idxOne="1"  idxTwo="3"  coef=".6046"/><qTerm  idx="-1"  idxOne="1"  idxTwo="5"  coef="-.7882"/><qTerm  idx="-1"  idxOne="1"  idxTwo="6"  coef=".4245"/><qTerm  idx="-1"  idxOne="1"  idxTwo="7"  coef="-.3577"/><qTerm  idx="-1"  idxOne="1"  idxTwo="10"  coef="-.6746"/><qTerm  idx="-1"  idxOne="1"  idxTwo="11"  coef="-.1915"/><qTerm  idx="-1"  idxOne="1"  idxTwo="13"  coef="-4.01e-2"/><qTerm  idx="-1"  idxOne="1"  idxTwo="15"  coef="-.9931"/><qTerm  idx="-1"  idxOne="1"  idxTwo="16"  coef="2.94e-2"/><qTerm  idx="-1"  idxOne="1"  idxTwo="18"  coef=".5066"/><qTerm  idx="-1"  idxOne="1"  idxTwo="20"  coef=".9387"/><qTerm  idx="-1"  idxOne="1"  idxTwo="23"  coef=".4504"/><qTerm  idx="-1"  idxOne="1"  idxTwo="24"  coef="-.8174"/><qTerm  idx="-1"  idxOne="1"  idxTwo="25"  coef="-.1996"/><qTerm  idx="-1"  idxOne="1"  idxTwo="26"  coef=".3514"/><qTerm  idx="-1"  idxOne="1"  idxTwo="27"  coef=".316"/><qTerm  idx="-1"  idxOne="1"  idxTwo="28"  coef=".6336"/><qTerm  idx="-1"  idxOne="2"  idxTwo="2"  coef="-.5032"/><qTerm  idx="-1"  idxOne="2"  idxTwo="3"  coef="-.4267"/><qTerm  idx="-1"  idxOne="2"  idxTwo="4"  coef="-.9986"/><qTerm  idx="-1"  idxOne="2"  idxTwo="6"  coef="-.5176"/><qTerm  idx="-1"  idxOne="2"  idxTwo="11"  coef="-.9889"/><qTerm  idx="-1"  idxOne="2"  idxTwo="12"  coef="-.2244"/><qTerm  idx="-1"  idxOne="2"  idxTwo="13"  coef="-.1486"/><qTerm  idx="-1"  idxOne="2"  idxTwo="15"  coef=".4237"/><qTerm  idx="-1"  idxOne="2"  idxTwo="16"  coef=".7526"/><qTerm  idx="-1"  idxOne="2"  idxTwo="17"  coef=".3702"/><qTerm  idx="-1"  idxOne="2"  idxTwo="23"  coef="-7.92e-2"/><qTerm  idx="-1"  idxOne="2"  idxTwo="26"  coef=".3093"/><qTerm  idx="-1"  idxOne="2"  idxTwo="28"  coef="-.3792"/><qTerm  idx="-1"  idxOne="2"  idxTwo="29"  coef=".5826"/><qTerm  idx="-1"  idxOne="3"  idxTwo="3"  coef="-2.7e-2"/><qTerm  idx="-1"  idxOne="3"  idxTwo="4"  coef=".2429"/><qTerm  idx="-1"  idxOne="3"  idxTwo="7"  coef=".4158"/><qTerm  idx="-1"  idxOne="3"  idxTwo="11"  coef="-.5107"/><qTerm  idx="-1"  idxOne="3"  idxTwo="13"  coef="-.3875"/><qTerm  idx="-1"  idxOne="3"  idxTwo="15"  coef="-.8247"/><qTerm  idx="-1"  idxOne="3"  idxTwo="16"  coef="-.1237"/><qTerm  idx="-1"  idxOne="3"  idxTwo="18"  coef="-.9108"/><qTerm  idx="-1"  idxOne="3"  idxTwo="19"  coef=".8865"/><qTerm  idx="-1"  idxOne="3"  idxTwo="22"  coef="-.2339"/><qTerm  idx="-1"  idxOne="3"  idxTwo="23"  coef="-.3238"/><qTerm  idx="-1"  idxOne="3"  idxTwo="25"  coef=".3171"/><qTerm  idx="-1"  idxOne="3"  idxTwo="26"  coef="-.7991"/><qTerm  idx="-1"  idxOne="3"  idxTwo="28"  coef=".8642"/><qTerm  idx="-1"  idxOne="3"  idxTwo="29"  coef="-.3354"/><qTerm  idx="-1"  idxOne="4"  idxTwo="4"  coef="-.9854"/><qTerm  idx="-1"  idxOne="4"  idxTwo="6"  coef=".6736"/><qTerm  idx="-1"  idxOne="4"  idxTwo="7"  coef=".9472"/><qTerm  idx="-1"  idxOne="4"  idxTwo="8"  coef="-.6774"/><qTerm  idx="-1"  idxOne="4"  idxTwo="9"  coef=".2819"/><qTerm  idx="-1"  idxOne="4"  idxTwo="10"  coef="-.8312"/><qTerm  idx="-1"  idxOne="4"  idxTwo="12"  coef=".9588"/><qTerm  idx="-1"  idxOne="4"  idxTwo="13"  coef=".6607"/><qTerm  idx="-1"  idxOne="4"  idxTwo="14"  coef="-.7955"/><qTerm  idx="-1"  idxOne="4"  idxTwo="15"  coef="-.3957"/><qTerm  idx="-1"  idxOne="4"  idxTwo="16"  coef="-.7523"/><qTerm  idx="-1"  idxOne="4"  idxTwo="18"  coef="-.232"/><qTerm  idx="-1"  idxOne="4"  idxTwo="22"  coef=".7743"/><qTerm  idx="-1"  idxOne="4"  idxTwo="23"  coef="-.4182"/><qTerm  idx="-1"  idxOne="4"  idxTwo="24"  coef="-.8409"/><qTerm  idx="-1"  idxOne="5"  idxTwo="5"  coef=".2953"/><qTerm  idx="-1"  idxOne="5"  idxTwo="8"  coef="-.6522"/><qTerm  idx="-1"  idxOne="5"  idxTwo="9"  coef=".2996"/><qTerm  idx="-1"  idxOne="5"  idxTwo="10"  coef="-.319"/><qTerm  idx="-1"  idxOne="5"  idxTwo="11"  coef="9.2e-2"/><qTerm  idx="-1"  idxOne="5"  idxTwo="12"  coef="-.9485"/><qTerm  idx="-1"  idxOne="5"  idxTwo="13"  coef=".7382"/><qTerm  idx="-1"  idxOne="5"  idxTwo="14"  coef="-.1359"/><qTerm  idx="-1"  idxOne="5"  idxTwo="15"  coef=".3935"/><qTerm  idx="-1"  idxOne="5"  idxTwo="18"  coef=".8373"/><qTerm  idx="-1"  idxOne="5"  idxTwo="20"  coef=".8982"/><qTerm  idx="-1"  idxOne="5"  idxTwo="21"  coef="-.5906"/><qTerm  idx="-1"  idxOne="5"  idxTwo="27"  coef="-.1772"/><qTerm  idx="-1"  idxOne="5"  idxTwo="28"  coef=".834"/><qTerm  idx="-1"  idxOne="6"  idxTwo="9"  coef="-.6971"/><qTerm  idx="-1"  idxOne="6"  idxTwo="11"  coef="-.5593"/><qTerm  idx="-1"  idxOne="6"  idxTwo="12"  coef=".5782"/><qTerm  idx="-1"  idxOne="6"  idxTwo="14"  coef="-5.24e-2"/><qTerm  idx="-1"  idxOne="6"  idxTwo="15"  coef=".3458"/><qTerm  idx="-1"  idxOne="6"  idxTwo="17"  coef="-.5235"/><qTerm  idx="-1"  idxOne="6"  idxTwo="18"  coef="-.1639"/><qTerm  idx="-1"  idxOne="6"  idxTwo="20"  coef=".8372"/><qTerm  idx="-1"  idxOne="6"  idxTwo="26"  coef=".6061"/><qTerm  idx="-1"  idxOne="6"  idxTwo="28"  coef="-4.21e-2"/><qTerm  idx="-1"  idxOne="6"  idxTwo="29"  coef="7.8e-3"/><qTerm  idx="-1"  idxOne="7"  idxTwo="7"  coef=".992"/><qTerm  idx="-1"  idxOne="7"  idxTwo="8"  coef="-.9383"/><qTerm  idx="-1"  idxOne="7"  idxTwo="10"  coef=".3232"/><qTerm  idx="-1"  idxOne="7"  idxTwo="11"  coef="-.1077"/><qTerm  idx="-1"  idxOne="7"  idxTwo="12"  coef="-.6034"/><qTerm  idx="-1"  idxOne="7"  idxTwo="16"  coef=".5167"/><qTerm  idx="-1"  idxOne="7"  idxTwo="17"  coef=".5893"/><qTerm  idx="-1"  idxOne="7"  idxTwo="22"  coef=".3498"/><qTerm  idx="-1"  idxOne="7"  idxTwo="23"  coef=".9897"/><qTerm  idx="-1"  idxOne="7"  idxTwo="24"  coef="-.4292"/><qTerm  idx="-1"  idxOne="7"  idxTwo="25"  coef=".6811"/><qTerm  idx="-1"  idxOne="7"  idxTwo="27"  coef="-.9318"/><qTerm  idx="-1"  idxOne="7"  idxTwo="28"  coef="-.628"/><qTerm  idx="-1"  idxOne="7"  idxTwo="29"  coef="-.7347"/><qTerm  idx="-1"  idxOne="8"  idxTwo="8"  coef="-.6338"/><qTerm  idx="-1"  idxOne="8"  idxTwo="9"  coef="-8.9e-3"/><qTerm  idx="-1"  idxOne="8"  idxTwo="10"  coef=".435"/><qTerm  idx="-1"  idxOne="8"  idxTwo="11"  coef="-.9752"/><qTerm  idx="-1"  idxOne="8"  idxTwo="17"  coef=".7921"/><qTerm  idx="-1"  idxOne="8"  idxTwo="18"  coef="-.6234"/><qTerm  idx="-1"  idxOne="8"  idxTwo="21"  coef="-.2596"/><qTerm  idx="-1"  idxOne="8"  idxTwo="23"  coef="3.8e-2"/><qTerm  idx="-1"  idxOne="8"  idxTwo="25"  coef=".7493"/><qTerm  idx="-1"  idxOne="8"  idxTwo="27"  coef="2.56e-2"/><qTerm  idx="-1"  idxOne="8"  idxTwo="28"  coef="-.457"/><qTerm  idx="-1"  idxOne="9"  idxTwo="11"  coef="-.3738"/><qTerm  idx="-1"  idxOne="9"  idxTwo="12"  coef=".2854"/><qTerm  idx="-1"  idxOne="9"  idxTwo="15"  coef="-.4543"/><qTerm  idx="-1"  idxOne="9"  idxTwo="16"  coef="-3.e-2"/><qTerm  idx="-1"  idxOne="9"  idxTwo="19"  coef="-.9105"/><qTerm  idx="-1"  idxOne="9"  idxTwo="21"  coef="-.7535"/><qTerm  idx="-1"  idxOne="9"  idxTwo="22"  coef="-.1891"/><qTerm  idx="-1"  idxOne="9"  idxTwo="24"  coef=".6336"/><qTerm  idx="-1"  idxOne="9"  idxTwo="25"  coef=".1559"/><qTerm  idx="-1"  idxOne="9"  idxTwo="29"  coef="-.3327"/><qTerm  idx="-1"  idxOne="10"  idxTwo="11"  coef="-4.13e-2"/><qTerm  idx="-1"  idxOne="10"  idxTwo="12"  coef="-.3352"/><qTerm  idx="-1"  idxOne="10"  idxTwo="13"  coef="-.9197"/><qTerm  idx="-1"  idxOne="10"  idxTwo="14"  coef="-.3498"/><qTerm  idx="-1"  idxOne="10"  idxTwo="19"  coef="-.3321"/><qTerm  idx="-1"  idxOne="10"  idxTwo="20"  coef=".3069"/><qTerm  idx="-1"  idxOne="10"  idxTwo="23"  coef="-.6815"/><qTerm  idx="-1"  idxOne="10"  idxTwo="25"  coef="-.9023"/><qTerm  idx="-1"  idxOne="10"  idxTwo="26"  coef="-.3243"/><qTerm  idx="-1"  idxOne="11"  idxTwo="11"  coef="-.7002"/><qTerm  idx="-1"  idxOne="11"  idxTwo="13"  coef=".8733"/><qTerm  idx="-1"  idxOne="11"  idxTwo="16"  coef=".7257"/><qTerm  idx="-1"  idxOne="11"  idxTwo="18"  coef=".807"/><qTerm  idx="-1"  idxOne="11"  idxTwo="25"  coef="-.3247"/><qTerm  idx="-1"  idxOne="12"  idxTwo="12"  coef=".751"/><qTerm  idx="-1"  idxOne="12"  idxTwo="16"  coef="-.1371"/><qTerm  idx="-1"  idxOne="12"  idxTwo="19"  coef=".3378"/><qTerm  idx="-1"  idxOne="12"  idxTwo="21"  coef=".4854"/><qTerm  idx="-1"  idxOne="12"  idxTwo="22"  coef=".6818"/><qTerm  idx="-1"  idxOne="12"  idxTwo="23"  coef="-.2154"/><qTerm  idx="-1"  idxOne="12"  idxTwo="24"  coef=".9713"/><qTerm  idx="-1"  idxOne="12"  idxTwo="29"  coef="5.08e-2"/><qTerm  idx="-1"  idxOne="13"  idxTwo="13"  coef="-8.21e-2"/><qTerm  idx="-1"  idxOne="13"  idxTwo="15"  coef="-.2744"/><qTerm  idx="-1"  idxOne="13"  idxTwo="17"  coef=".3301"/><qTerm  idx="-1"  idxOne="13"  idxTwo="18"  coef="9.77e-2"/><qTerm  idx="-1"  idxOne="13"  idxTwo="20"  coef=".7447"/><qTerm  idx="-1"  idxOne="13"  idxTwo="21"  coef=".152"/><qTerm  idx="-1"  idxOne="13"  idxTwo="23"  coef=".6629"/><qTerm  idx="-1"  idxOne="13"  idxTwo="28"  coef="-.8393"/><qTerm  idx="-1"  idxOne="13"  idxTwo="29"  coef=".1067"/><qTerm  idx="-1"  idxOne="14"  idxTwo="14"  coef="-.9084"/><qTerm  idx="-1"  idxOne="14"  idxTwo="15"  coef=".761"/><qTerm  idx="-1"  idxOne="14"  idxTwo="16"  coef=".5597"/><qTerm  idx="-1"  idxOne="14"  idxTwo="19"  coef="-.2003"/><qTerm  idx="-1"  idxOne="14"  idxTwo="20"  coef="-.9542"/><qTerm  idx="-1"  idxOne="14"  idxTwo="22"  coef="-.1824"/><qTerm  idx="-1"  idxOne="14"  idxTwo="26"  coef="-.8383"/><qTerm  idx="-1"  idxOne="14"  idxTwo="28"  coef="-.6698"/><qTerm  idx="-1"  idxOne="14"  idxTwo="29"  coef="2.78e-2"/><qTerm  idx="-1"  idxOne="15"  idxTwo="17"  coef="-.6996"/><qTerm  idx="-1"  idxOne="15"  idxTwo="18"  coef="-.3721"/><qTerm  idx="-1"  idxOne="15"  idxTwo="22"  coef="-9.7e-3"/><qTerm  idx="-1"  idxOne="15"  idxTwo="25"  coef="-.1389"/><qTerm  idx="-1"  idxOne="15"  idxTwo="28"  coef="-.1557"/><qTerm  idx="-1"  idxOne="15"  idxTwo="29"  coef=".3259"/><qTerm  idx="-1"  idxOne="16"  idxTwo="18"  coef=".2066"/><qTerm  idx="-1"  idxOne="16"  idxTwo="19"  coef=".4973"/><qTerm  idx="-1"  idxOne="16"  idxTwo="20"  coef="-7.94e-2"/><qTerm  idx="-1"  idxOne="16"  idxTwo="22"  coef=".9822"/><qTerm  idx="-1"  idxOne="16"  idxTwo="25"  coef=".9661"/><qTerm  idx="-1"  idxOne="16"  idxTwo="27"  coef="-.7344"/><qTerm  idx="-1"  idxOne="16"  idxTwo="29"  coef=".5813"/><qTerm  idx="-1"  idxOne="17"  idxTwo="23"  coef="-2.59e-2"/><qTerm  idx="-1"  idxOne="18"  idxTwo="19"  coef="-.8178"/><qTerm  idx="-1"  idxOne="18"  idxTwo="21"  coef=".1696"/><qTerm  idx="-1"  idxOne="18"  idxTwo="24"  coef="4.74e-2"/><qTerm  idx="-1"  idxOne="18"  idxTwo="27"  coef="-.6102"/><qTerm  idx="-1"  idxOne="18"  idxTwo="28"  coef=".3413"/><qTerm  idx="-1"  idxOne="19"  idxTwo="19"  coef="-3.21e-2"/><qTerm  idx="-1"  idxOne="19"  idxTwo="21"  coef=".3867"/><qTerm  idx="-1"  idxOne="19"  idxTwo="25"  coef="-.9594"/><qTerm  idx="-1"  idxOne="20"  idxTwo="20"  coef="-9.41e-2"/><qTerm  idx="-1"  idxOne="20"  idxTwo="21"  coef=".2824"/><qTerm  idx="-1"  idxOne="20"  idxTwo="25"  coef=".2279"/><qTerm  idx="-1"  idxOne="20"  idxTwo="28"  coef="-.2678"/><qTerm  idx="-1"  idxOne="20"  idxTwo="29"  coef=".8357"/><qTerm  idx="-1"  idxOne="21"  idxTwo="21"  coef="-.1385"/><qTerm  idx="-1"  idxOne="21"  idxTwo="22"  coef="-2.8e-3"/><qTerm  idx="-1"  idxOne="21"  idxTwo="26"  coef=".6343"/><qTerm  idx="-1"  idxOne="21"  idxTwo="28"  coef=".6558"/><qTerm  idx="-1"  idxOne="22"  idxTwo="22"  coef="-.3929"/><qTerm  idx="-1"  idxOne="22"  idxTwo="23"  coef=".5754"/><qTerm  idx="-1"  idxOne="22"  idxTwo="26"  coef=".5376"/><qTerm  idx="-1"  idxOne="22"  idxTwo="27"  coef="-.9033"/><qTerm  idx="-1"  idxOne="22"  idxTwo="29"  coef="-.3758"/><qTerm  idx="-1"  idxOne="23"  idxTwo="23"  coef="5.38e-2"/><qTerm  idx="-1"  idxOne="23"  idxTwo="24"  coef=".5201"/><qTerm  idx="-1"  idxOne="23"  idxTwo="25"  coef="5.02e-2"/><qTerm  idx="-1"  idxOne="23"  idxTwo="26"  coef=".6526"/><qTerm  idx="-1"  idxOne="23"  idxTwo="27"  coef=".3788"/><qTerm  idx="-1"  idxOne="23"  idxTwo="28"  coef="-.2957"/><qTerm  idx="-1"  idxOne="24"  idxTwo="24"  coef=".2894"/><qTerm  idx="-1"  idxOne="24"  idxTwo="25"  coef="-.7789"/><qTerm  idx="-1"  idxOne="24"  idxTwo="29"  coef="-.7901"/><qTerm  idx="-1"  idxOne="25"  idxTwo="25"  coef=".4762"/><qTerm  idx="-1"  idxOne="25"  idxTwo="27"  coef=".4641"/><qTerm  idx="-1"  idxOne="25"  idxTwo="28"  coef=".4006"/><qTerm  idx="-1"  idxOne="25"  idxTwo="29"  coef=".9277"/><qTerm  idx="-1"  idxOne="26"  idxTwo="26"  coef=".1455"/><qTerm  idx="-1"  idxOne="26"  idxTwo="28"  coef="-.2138"/><qTerm  idx="-1"  idxOne="27"  idxTwo="27"  coef=".5281"/><qTerm  idx="-1"  idxOne="27"  idxTwo="29"  coef="-.3557"/><qTerm  idx="-1"  idxOne="28"  idxTwo="29"  coef=".9451"/><qTerm  idx="-1"  idxOne="29"  idxTwo="29"  coef=".3845"/></quadraticCoefficients></instanceData></osil>
